* (set-option :incremental false)
* (set-info :status sat)
* (set-logic QF_BV)
* (declare-fun a () (_ BitVec 32))
* (check-sat-assuming ( (= (_ bv0 5) (concat (_ bv0 3) ((_ extract 6 5) a))) ))
* sat
* #variable= 17 #constraint= 16
+1 x11 -1 x6 = 0;
+1 x1 +2 x2 +4 x3 +8 x4 +16 x5 -1 x6 -2 x7 -4 x8 -8 x9 -16 x10 = 0;
+1 x5 = 0;
+1 x45 = 0;
+1 x2 = 0;
+1 x46 = 0;
+1 x19 -1 x12 = 0;
+1 x3 = 0;
+1 x47 = 0;
+1 x47 -1 x10 = 0;
+1 x4 = 0;
+1 x46 -1 x9 = 0;
+1 x18 -1 x11 = 0;
+1 x1 = 0;
+1 x45 -1 x8 = 0;
+1 x12 -1 x7 = 0;
